
Gurobi 9.0.3 (win64, Java) logging started Wed Feb 24 06:27:15 2021

Academic license - for non-commercial use only

Gurobi 9.0.3 (win64, Java) logging started Wed Feb 24 06:27:17 2021

Academic license - for non-commercial use only

Gurobi 9.0.3 (win64, Java) logging started Wed Feb 24 06:27:21 2021

Academic license - for non-commercial use only

Gurobi 9.0.3 (win64, Java) logging started Wed Feb 24 06:27:24 2021

Academic license - for non-commercial use only

Gurobi 9.0.3 (win64, Java) logging started Wed Feb 24 06:27:31 2021

Academic license - for non-commercial use only

Gurobi 9.0.3 (win64, Java) logging started Wed Feb 24 06:27:34 2021

Academic license - for non-commercial use only

Gurobi 9.0.3 (win64, Java) logging started Wed Feb 24 06:27:38 2021

Academic license - for non-commercial use only
